letting numberCities be 26
letting distances be function (
(1,1) --> 0,
(1,2) --> 83,
(1,3) --> 93,
(1,4) --> 129,
(1,5) --> 133,
(1,6) --> 139,
(1,7) --> 151,
(1,8) --> 169,
(1,9) --> 135,
(1,10) --> 114,
(1,11) --> 110,
(1,12) --> 98,
(1,13) --> 99,
(1,14) --> 95,
(1,15) --> 81,
(1,16) --> 152,
(1,17) --> 159,
(1,18) --> 181,
(1,19) --> 172,
(1,20) --> 185,
(1,21) --> 147,
(1,22) --> 157,
(1,23) --> 185,
(1,24) --> 220,
(1,25) --> 127,
(1,26) --> 181,
(2,1) --> 83,
(2,2) --> 0,
(2,3) --> 40,
(2,4) --> 53,
(2,5) --> 62,
(2,6) --> 64,
(2,7) --> 91,
(2,8) --> 116,
(2,9) --> 93,
(2,10) --> 84,
(2,11) --> 95,
(2,12) --> 98,
(2,13) --> 89,
(2,14) --> 68,
(2,15) --> 67,
(2,16) --> 127,
(2,17) --> 156,
(2,18) --> 175,
(2,19) --> 152,
(2,20) --> 165,
(2,21) --> 160,
(2,22) --> 180,
(2,23) --> 223,
(2,24) --> 268,
(2,25) --> 179,
(2,26) --> 197,
(3,1) --> 93,
(3,2) --> 40,
(3,3) --> 0,
(3,4) --> 42,
(3,5) --> 42,
(3,6) --> 49,
(3,7) --> 59,
(3,8) --> 81,
(3,9) --> 54,
(3,10) --> 44,
(3,11) --> 58,
(3,12) --> 64,
(3,13) --> 54,
(3,14) --> 31,
(3,15) --> 36,
(3,16) --> 86,
(3,17) --> 117,
(3,18) --> 135,
(3,19) --> 112,
(3,20) --> 125,
(3,21) --> 124,
(3,22) --> 147,
(3,23) --> 193,
(3,24) --> 241,
(3,25) --> 157,
(3,26) --> 161,
(4,1) --> 129,
(4,2) --> 53,
(4,3) --> 42,
(4,4) --> 0,
(4,5) --> 11,
(4,6) --> 11,
(4,7) --> 46,
(4,8) --> 72,
(4,9) --> 65,
(4,10) --> 70,
(4,11) --> 88,
(4,12) --> 100,
(4,13) --> 89,
(4,14) --> 66,
(4,15) --> 76,
(4,16) --> 102,
(4,17) --> 142,
(4,18) --> 156,
(4,19) --> 127,
(4,20) --> 139,
(4,21) --> 155,
(4,22) --> 180,
(4,23) --> 228,
(4,24) --> 278,
(4,25) --> 197,
(4,26) --> 190,
(5,1) --> 133,
(5,2) --> 62,
(5,3) --> 42,
(5,4) --> 11,
(5,5) --> 0,
(5,6) --> 9,
(5,7) --> 35,
(5,8) --> 61,
(5,9) --> 55,
(5,10) --> 62,
(5,11) --> 82,
(5,12) --> 95,
(5,13) --> 84,
(5,14) --> 62,
(5,15) --> 74,
(5,16) --> 93,
(5,17) --> 133,
(5,18) --> 146,
(5,19) --> 117,
(5,20) --> 128,
(5,21) --> 148,
(5,22) --> 173,
(5,23) --> 222,
(5,24) --> 272,
(5,25) --> 194,
(5,26) --> 182,
(6,1) --> 139,
(6,2) --> 64,
(6,3) --> 49,
(6,4) --> 11,
(6,5) --> 9,
(6,6) --> 0,
(6,7) --> 39,
(6,8) --> 65,
(6,9) --> 63,
(6,10) --> 71,
(6,11) --> 90,
(6,12) --> 103,
(6,13) --> 92,
(6,14) --> 71,
(6,15) --> 82,
(6,16) --> 100,
(6,17) --> 141,
(6,18) --> 153,
(6,19) --> 124,
(6,20) --> 135,
(6,21) --> 156,
(6,22) --> 181,
(6,23) --> 230,
(6,24) --> 280,
(6,25) --> 202,
(6,26) --> 190,
(7,1) --> 151,
(7,2) --> 91,
(7,3) --> 59,
(7,4) --> 46,
(7,5) --> 35,
(7,6) --> 39,
(7,7) --> 0,
(7,8) --> 26,
(7,9) --> 34,
(7,10) --> 52,
(7,11) --> 71,
(7,12) --> 88,
(7,13) --> 77,
(7,14) --> 63,
(7,15) --> 78,
(7,16) --> 66,
(7,17) --> 110,
(7,18) --> 119,
(7,19) --> 88,
(7,20) --> 98,
(7,21) --> 130,
(7,22) --> 156,
(7,23) --> 206,
(7,24) --> 257,
(7,25) --> 188,
(7,26) --> 160,
(8,1) --> 169,
(8,2) --> 116,
(8,3) --> 81,
(8,4) --> 72,
(8,5) --> 61,
(8,6) --> 65,
(8,7) --> 26,
(8,8) --> 0,
(8,9) --> 37,
(8,10) --> 59,
(8,11) --> 75,
(8,12) --> 92,
(8,13) --> 83,
(8,14) --> 76,
(8,15) --> 91,
(8,16) --> 54,
(8,17) --> 98,
(8,18) --> 103,
(8,19) --> 70,
(8,20) --> 78,
(8,21) --> 122,
(8,22) --> 148,
(8,23) --> 198,
(8,24) --> 250,
(8,25) --> 188,
(8,26) --> 148,
(9,1) --> 135,
(9,2) --> 93,
(9,3) --> 54,
(9,4) --> 65,
(9,5) --> 55,
(9,6) --> 63,
(9,7) --> 34,
(9,8) --> 37,
(9,9) --> 0,
(9,10) --> 22,
(9,11) --> 39,
(9,12) --> 56,
(9,13) --> 47,
(9,14) --> 40,
(9,15) --> 55,
(9,16) --> 37,
(9,17) --> 78,
(9,18) --> 91,
(9,19) --> 62,
(9,20) --> 74,
(9,21) --> 96,
(9,22) --> 122,
(9,23) --> 172,
(9,24) --> 223,
(9,25) --> 155,
(9,26) --> 128,
(10,1) --> 114,
(10,2) --> 84,
(10,3) --> 44,
(10,4) --> 70,
(10,5) --> 62,
(10,6) --> 71,
(10,7) --> 52,
(10,8) --> 59,
(10,9) --> 22,
(10,10) --> 0,
(10,11) --> 20,
(10,12) --> 36,
(10,13) --> 26,
(10,14) --> 20,
(10,15) --> 34,
(10,16) --> 43,
(10,17) --> 74,
(10,18) --> 91,
(10,19) --> 68,
(10,20) --> 82,
(10,21) --> 86,
(10,22) --> 111,
(10,23) --> 160,
(10,24) --> 210,
(10,25) --> 136,
(10,26) --> 121,
(11,1) --> 110,
(11,2) --> 95,
(11,3) --> 58,
(11,4) --> 88,
(11,5) --> 82,
(11,6) --> 90,
(11,7) --> 71,
(11,8) --> 75,
(11,9) --> 39,
(11,10) --> 20,
(11,11) --> 0,
(11,12) --> 18,
(11,13) --> 11,
(11,14) --> 27,
(11,15) --> 32,
(11,16) --> 42,
(11,17) --> 61,
(11,18) --> 80,
(11,19) --> 64,
(11,20) --> 77,
(11,21) --> 68,
(11,22) --> 92,
(11,23) --> 140,
(11,24) --> 190,
(11,25) --> 116,
(11,26) --> 103,
(12,1) --> 98,
(12,2) --> 98,
(12,3) --> 64,
(12,4) --> 100,
(12,5) --> 95,
(12,6) --> 103,
(12,7) --> 88,
(12,8) --> 92,
(12,9) --> 56,
(12,10) --> 36,
(12,11) --> 18,
(12,12) --> 0,
(12,13) --> 11,
(12,14) --> 34,
(12,15) --> 31,
(12,16) --> 56,
(12,17) --> 63,
(12,18) --> 85,
(12,19) --> 75,
(12,20) --> 87,
(12,21) --> 62,
(12,22) --> 83,
(12,23) --> 129,
(12,24) --> 178,
(12,25) --> 100,
(12,26) --> 99,
(13,1) --> 99,
(13,2) --> 89,
(13,3) --> 54,
(13,4) --> 89,
(13,5) --> 84,
(13,6) --> 92,
(13,7) --> 77,
(13,8) --> 83,
(13,9) --> 47,
(13,10) --> 26,
(13,11) --> 11,
(13,12) --> 11,
(13,13) --> 0,
(13,14) --> 23,
(13,15) --> 24,
(13,16) --> 53,
(13,17) --> 68,
(13,18) --> 89,
(13,19) --> 74,
(13,20) --> 87,
(13,21) --> 71,
(13,22) --> 93,
(13,23) --> 140,
(13,24) --> 189,
(13,25) --> 111,
(13,26) --> 107,
(14,1) --> 95,
(14,2) --> 68,
(14,3) --> 31,
(14,4) --> 66,
(14,5) --> 62,
(14,6) --> 71,
(14,7) --> 63,
(14,8) --> 76,
(14,9) --> 40,
(14,10) --> 20,
(14,11) --> 27,
(14,12) --> 34,
(14,13) --> 23,
(14,14) --> 0,
(14,15) --> 15,
(14,16) --> 62,
(14,17) --> 87,
(14,18) --> 106,
(14,19) --> 87,
(14,20) --> 100,
(14,21) --> 93,
(14,22) --> 116,
(14,23) --> 163,
(14,24) --> 212,
(14,25) --> 132,
(14,26) --> 130,
(15,1) --> 81,
(15,2) --> 67,
(15,3) --> 36,
(15,4) --> 76,
(15,5) --> 74,
(15,6) --> 82,
(15,7) --> 78,
(15,8) --> 91,
(15,9) --> 55,
(15,10) --> 34,
(15,11) --> 32,
(15,12) --> 31,
(15,13) --> 24,
(15,14) --> 15,
(15,15) --> 0,
(15,16) --> 73,
(15,17) --> 92,
(15,18) --> 112,
(15,19) --> 96,
(15,20) --> 109,
(15,21) --> 93,
(15,22) --> 113,
(15,23) --> 158,
(15,24) --> 205,
(15,25) --> 122,
(15,26) --> 130,
(16,1) --> 152,
(16,2) --> 127,
(16,3) --> 86,
(16,4) --> 102,
(16,5) --> 93,
(16,6) --> 100,
(16,7) --> 66,
(16,8) --> 54,
(16,9) --> 37,
(16,10) --> 43,
(16,11) --> 42,
(16,12) --> 56,
(16,13) --> 53,
(16,14) --> 62,
(16,15) --> 73,
(16,16) --> 0,
(16,17) --> 44,
(16,18) --> 54,
(16,19) --> 26,
(16,20) --> 39,
(16,21) --> 68,
(16,22) --> 94,
(16,23) --> 144,
(16,24) --> 196,
(16,25) --> 139,
(16,26) --> 95,
(17,1) --> 159,
(17,2) --> 156,
(17,3) --> 117,
(17,4) --> 142,
(17,5) --> 133,
(17,6) --> 141,
(17,7) --> 110,
(17,8) --> 98,
(17,9) --> 78,
(17,10) --> 74,
(17,11) --> 61,
(17,12) --> 63,
(17,13) --> 68,
(17,14) --> 87,
(17,15) --> 92,
(17,16) --> 44,
(17,17) --> 0,
(17,18) --> 22,
(17,19) --> 34,
(17,20) --> 38,
(17,21) --> 30,
(17,22) --> 53,
(17,23) --> 102,
(17,24) --> 154,
(17,25) --> 109,
(17,26) --> 51,
(18,1) --> 181,
(18,2) --> 175,
(18,3) --> 135,
(18,4) --> 156,
(18,5) --> 146,
(18,6) --> 153,
(18,7) --> 119,
(18,8) --> 103,
(18,9) --> 91,
(18,10) --> 91,
(18,11) --> 80,
(18,12) --> 85,
(18,13) --> 89,
(18,14) --> 106,
(18,15) --> 112,
(18,16) --> 54,
(18,17) --> 22,
(18,18) --> 0,
(18,19) --> 33,
(18,20) --> 29,
(18,21) --> 46,
(18,22) --> 64,
(18,23) --> 107,
(18,24) --> 157,
(18,25) --> 125,
(18,26) --> 51,
(19,1) --> 172,
(19,2) --> 152,
(19,3) --> 112,
(19,4) --> 127,
(19,5) --> 117,
(19,6) --> 124,
(19,7) --> 88,
(19,8) --> 70,
(19,9) --> 62,
(19,10) --> 68,
(19,11) --> 64,
(19,12) --> 75,
(19,13) --> 74,
(19,14) --> 87,
(19,15) --> 96,
(19,16) --> 26,
(19,17) --> 34,
(19,18) --> 33,
(19,19) --> 0,
(19,20) --> 13,
(19,21) --> 63,
(19,22) --> 87,
(19,23) --> 135,
(19,24) --> 186,
(19,25) --> 141,
(19,26) --> 81,
(20,1) --> 185,
(20,2) --> 165,
(20,3) --> 125,
(20,4) --> 139,
(20,5) --> 128,
(20,6) --> 135,
(20,7) --> 98,
(20,8) --> 78,
(20,9) --> 74,
(20,10) --> 82,
(20,11) --> 77,
(20,12) --> 87,
(20,13) --> 87,
(20,14) --> 100,
(20,15) --> 109,
(20,16) --> 39,
(20,17) --> 38,
(20,18) --> 29,
(20,19) --> 13,
(20,20) --> 0,
(20,21) --> 68,
(20,22) --> 90,
(20,23) --> 136,
(20,24) --> 186,
(20,25) --> 148,
(20,26) --> 79,
(21,1) --> 147,
(21,2) --> 160,
(21,3) --> 124,
(21,4) --> 155,
(21,5) --> 148,
(21,6) --> 156,
(21,7) --> 130,
(21,8) --> 122,
(21,9) --> 96,
(21,10) --> 86,
(21,11) --> 68,
(21,12) --> 62,
(21,13) --> 71,
(21,14) --> 93,
(21,15) --> 93,
(21,16) --> 68,
(21,17) --> 30,
(21,18) --> 46,
(21,19) --> 63,
(21,20) --> 68,
(21,21) --> 0,
(21,22) --> 26,
(21,23) --> 77,
(21,24) --> 128,
(21,25) --> 80,
(21,26) --> 37,
(22,1) --> 157,
(22,2) --> 180,
(22,3) --> 147,
(22,4) --> 180,
(22,5) --> 173,
(22,6) --> 181,
(22,7) --> 156,
(22,8) --> 148,
(22,9) --> 122,
(22,10) --> 111,
(22,11) --> 92,
(22,12) --> 83,
(22,13) --> 93,
(22,14) --> 116,
(22,15) --> 113,
(22,16) --> 94,
(22,17) --> 53,
(22,18) --> 64,
(22,19) --> 87,
(22,20) --> 90,
(22,21) --> 26,
(22,22) --> 0,
(22,23) --> 50,
(22,24) --> 102,
(22,25) --> 65,
(22,26) --> 27,
(23,1) --> 185,
(23,2) --> 223,
(23,3) --> 193,
(23,4) --> 228,
(23,5) --> 222,
(23,6) --> 230,
(23,7) --> 206,
(23,8) --> 198,
(23,9) --> 172,
(23,10) --> 160,
(23,11) --> 140,
(23,12) --> 129,
(23,13) --> 140,
(23,14) --> 163,
(23,15) --> 158,
(23,16) --> 144,
(23,17) --> 102,
(23,18) --> 107,
(23,19) --> 135,
(23,20) --> 136,
(23,21) --> 77,
(23,22) --> 50,
(23,23) --> 0,
(23,24) --> 51,
(23,25) --> 64,
(23,26) --> 58,
(24,1) --> 220,
(24,2) --> 268,
(24,3) --> 241,
(24,4) --> 278,
(24,5) --> 272,
(24,6) --> 280,
(24,7) --> 257,
(24,8) --> 250,
(24,9) --> 223,
(24,10) --> 210,
(24,11) --> 190,
(24,12) --> 178,
(24,13) --> 189,
(24,14) --> 212,
(24,15) --> 205,
(24,16) --> 196,
(24,17) --> 154,
(24,18) --> 157,
(24,19) --> 186,
(24,20) --> 186,
(24,21) --> 128,
(24,22) --> 102,
(24,23) --> 51,
(24,24) --> 0,
(24,25) --> 93,
(24,26) --> 107,
(25,1) --> 127,
(25,2) --> 179,
(25,3) --> 157,
(25,4) --> 197,
(25,5) --> 194,
(25,6) --> 202,
(25,7) --> 188,
(25,8) --> 188,
(25,9) --> 155,
(25,10) --> 136,
(25,11) --> 116,
(25,12) --> 100,
(25,13) --> 111,
(25,14) --> 132,
(25,15) --> 122,
(25,16) --> 139,
(25,17) --> 109,
(25,18) --> 125,
(25,19) --> 141,
(25,20) --> 148,
(25,21) --> 80,
(25,22) --> 65,
(25,23) --> 64,
(25,24) --> 93,
(25,25) --> 0,
(25,26) --> 90,
(26,1) --> 181,
(26,2) --> 197,
(26,3) --> 161,
(26,4) --> 190,
(26,5) --> 182,
(26,6) --> 190,
(26,7) --> 160,
(26,8) --> 148,
(26,9) --> 128,
(26,10) --> 121,
(26,11) --> 103,
(26,12) --> 99,
(26,13) --> 107,
(26,14) --> 130,
(26,15) --> 130,
(26,16) --> 95,
(26,17) --> 51,
(26,18) --> 51,
(26,19) --> 81,
(26,20) --> 79,
(26,21) --> 37,
(26,22) --> 27,
(26,23) --> 58,
(26,24) --> 107,
(26,25) --> 90,
(26,26) --> 0)
